1	52
2	49
3	64
4	26
5	30
6	47
7	63
8	62
9	33
10	21
11	41
12	32
13	25
14	42
15	16
16	41
17	23
18	33
19	13
20	58
21	42
22	57
23	57
24	52
25	38
26	68
27	48
28	67
29	48
30	27
31	69
32	46
33	10
34	33
35	63
36	69
37	22
38	35
39	15
40	6
41	17
42	10
43	64
44	15
45	10
46	39
47	32
48	55
49	28
50	37
51	40